Problem:    
Rows:       256
Columns:    89 (72 integer, 72 binary)
Non-zeros:  800
Status:     INTEGER OPTIMAL
Objective:  value = 91.136812 (MINimum)

   No.   Row name        Activity     Lower bound   Upper bound
------ ------------    ------------- ------------- -------------
     1 r.5                   91.1368             0               
     2 r.6                  -984.986      -985.494               
     3 r.7                   1091.14             0               
     4 r.8                  -951.516      -980.704               
     5 r.9                   91.1368             0               
     6 r.10                  -984.23      -984.738               
     7 r.11                  1091.14             0               
     8 r.12                 -970.812      -979.506               
     9 r.13                  1091.14             0               
    10 r.14                 -945.758      -973.271               
    11 r.15                  91.1368             0               
    12 r.16                  54.2417      -965.093               
    13 r.17                  1091.14             0               
    14 r.18                 -985.715      -986.223               
    15 r.19                  91.1368             0               
    16 r.20                  27.5128      -982.008               
    17 r.21                  1091.14             0               
    18 r.22                 -972.487      -986.772               
    19 r.23                  91.1368             0               
    20 r.24                  48.4841      -982.598               
    21 r.25                  1091.14             0               
    22 r.26                 -999.491      -999.491               
    23 r.27                  91.1368             0               
    24 r.28                   0.5085      -999.157               
    25 r.29                  91.1368             0               
    26 r.30                 -914.462      -962.946               
    27 r.31                  1091.14             0               
    28 r.32                 -908.863      -957.347               
    29 r.33                  1091.14             0               
    30 r.34                 -908.863      -963.105               
    31 r.35                  91.1368             0               
    32 r.36                  91.1368      -957.748               
    33 r.37                        1             1             = 
    34 r.38                        1             1             = 
    35 r.39                        1             1             = 
    36 r.40                        1             1             = 
    37 r.41                        1             1             = 
    38 r.42                        1             1             = 
    39 r.43                        1             1             = 
    40 r.44                        1             1             = 
    41 r.45                     1000             2               
    42 r.46                    -1000         -1001               
    43 r.47                  2000.76      -984.738               
    44 r.48                        2             2               
    45 r.49                       -2         -1001               
    46 r.50                 -19.2956      -979.506               
    47 r.51                     1001             2               
    48 r.52                    -1001         -1001               
    49 r.53                  3039.23      -973.271               
    50 r.54                     1001             2               
    51 r.55                    -1001         -1001               
    52 r.56                  2005.76      -965.093               
    53 r.57                     1001             2               
    54 r.58                    -1001         -1001               
    55 r.59                  2999.27      -986.223               
    56 r.60                     1001             2               
    57 r.61                    -1001         -1001               
    58 r.62                  1979.03      -982.008               
    59 r.63                     1001             2               
    60 r.64                    -1001         -1001               
    61 r.65                   3012.5      -986.772               
    62 r.66                     1001             2               
    63 r.67                    -1001         -1001               
    64 r.68                     2000      -982.598               
    65 r.69                 -985.494      -985.494               
    66 r.70                 -952.024      -980.704               
    67 r.71                 -985.494      -985.494               
    68 r.72                 -952.024      -980.704               
    69 r.73                  70.5239      -962.946               
    70 r.74                  76.1227      -957.347               
    71 r.75                 -962.946      -962.946               
    72 r.76                 -957.347      -957.347               
    73 r.77                     1001             2               
    74 r.78                    -1001         -1001               
    75 r.79                  3076.12      -963.105               
    76 r.80                     1001             2               
    77 r.81                    -1001         -1001               
    78 r.82                  2042.65      -957.748               
    79 r.83                     1000             2               
    80 r.84                    -1000         -1001               
    81 r.85                  1999.24       14.5056               
    82 r.86                        2             2               
    83 r.87                       -2         -1001               
    84 r.88                  19.2956       19.2956               
    85 r.89                     1001             2               
    86 r.90                    -1001         -1001               
    87 r.91                  3038.47      -973.271               
    88 r.92                     1001             2               
    89 r.93                    -1001         -1001               
    90 r.94                  2025.05      -965.093               
    91 r.95                     1001             2               
    92 r.96                    -1001         -1001               
    93 r.97                  2998.51      -986.223               
    94 r.98                     1001             2               
    95 r.99                    -1001         -1001               
    96 r.100                 1998.32      -982.008               
    97 r.101                    1001             2               
    98 r.102                   -1001         -1001               
    99 r.103                 3011.74      -986.772               
   100 r.104                    1001             2               
   101 r.105                   -1001         -1001               
   102 r.106                  2019.3      -982.598               
   103 r.107                -984.738      -984.738               
   104 r.108                 -971.32      -979.506               
   105 r.109                -984.738      -984.738               
   106 r.110                 -971.32      -979.506               
   107 r.111                    1000             2               
   108 r.112                   -1000         -1001               
   109 r.113                 2069.77      -962.946               
   110 r.114                       2             2               
   111 r.115                      -2         -1001               
   112 r.116                -938.052      -957.347               
   113 r.117                 75.3664      -963.105               
   114 r.118                 1075.37      -957.748               
   115 r.119                -938.052      -963.105               
   116 r.120                 61.9484      -957.748               
   117 r.121                    1001             2               
   118 r.122                   -1001         -1001               
   119 r.123                 960.772       14.5056               
   120 r.124                    1001             2               
   121 r.125                   -1001         -1001               
   122 r.126                 1994.24       19.2956               
   123 r.127                    1001             2               
   124 r.128                   -1001         -1001               
   125 r.129                 961.529       15.2619               
   126 r.130                    1001             2               
   127 r.131                   -1001         -1001               
   128 r.132                 1974.95        20.494               
   129 r.133                -960.043      -973.271               
   130 r.134                 39.9566      -965.093               
   131 r.135                -973.271      -973.271               
   132 r.136                  26.729      -965.093               
   133 r.137                       2             2               
   134 r.138                      -2         -1001               
   135 r.139                 -26.729      -986.772               
   136 r.140                    1000             2               
   137 r.141                   -1000         -1001               
   138 r.142                 1994.24      -982.598               
   139 r.143                -946.267      -973.271               
   140 r.144                 53.7332      -965.093               
   141 r.145                -946.267      -973.271               
   142 r.146                 53.7332      -965.093               
   143 r.147                    1001             2               
   144 r.148                   -1001         -1001               
   145 r.149                  1031.3      -962.946               
   146 r.150                    1001             2               
   147 r.151                   -1001         -1001               
   148 r.152                  2036.9      -957.347               
   149 r.153                -963.105      -963.105               
   150 r.154                 36.8951      -957.748               
   151 r.155                -963.105      -963.105               
   152 r.156                 36.8951      -957.748               
   153 r.157                    1001             2               
   154 r.158                   -1001         -1001               
   155 r.159                 1000.73       14.5056               
   156 r.160                    1001             2               
   157 r.161                   -1001         -1001               
   158 r.162                 2020.97       19.2956               
   159 r.163                    1001             2               
   160 r.164                   -1001         -1001               
   161 r.165                 1001.49       15.2619               
   162 r.166                    1001             2               
   163 r.167                   -1001         -1001               
   164 r.168                 2001.68        20.494               
   165 r.169                       2             2               
   166 r.170                      -2         -1001               
   167 r.171                -986.772      -986.772               
   168 r.172                    1000             2               
   169 r.173                   -1000         -1001               
   170 r.174                 2020.97      -982.598               
   171 r.175                -986.223      -986.223               
   172 r.176                 27.0043      -982.008               
   173 r.177                -986.223      -986.223               
   174 r.178                 27.0043      -982.008               
   175 r.179                    1001             2               
   176 r.180                   -1001         -1001               
   177 r.181                 1071.25      -962.946               
   178 r.182                    1001             2               
   179 r.183                   -1001         -1001               
   180 r.184                 2063.62      -957.347               
   181 r.185                -923.148      -963.105               
   182 r.186                 76.8517      -957.748               
   183 r.187                -936.376      -963.105               
   184 r.188                 63.6241      -957.748               
   185 r.189                    1001             2               
   186 r.190                   -1001         -1001               
   187 r.191                 987.501       14.5056               
   188 r.192                    1001             2               
   189 r.193                   -1001         -1001               
   190 r.194                    2000       19.2956               
   191 r.195                    1001             2               
   192 r.196                   -1001         -1001               
   193 r.197                 988.258       15.2619               
   194 r.198                    1001             2               
   195 r.199                   -1001         -1001               
   196 r.200                  1980.7        20.494               
   197 r.201                       2             2               
   198 r.202                      -2         -1001               
   199 r.203                  26.729        26.729               
   200 r.204                    1000             2               
   201 r.205                   -1000         -1001               
   202 r.206                 2005.76       34.9073               
   203 r.207                       2             2               
   204 r.208                      -2         -1001               
   205 r.209                 986.772       13.7767               
   206 r.210                    1000             2               
   207 r.211                   -1000         -1001               
   208 r.212                 1979.03       17.9922               
   209 r.213                -972.996      -986.772               
   210 r.214                 47.9756      -982.598               
   211 r.215                -972.996      -986.772               
   212 r.216                 47.9756      -982.598               
   213 r.217                -941.975      -962.946               
   214 r.218                -936.376      -957.347               
   215 r.219                -962.946      -962.946               
   216 r.220                -957.347      -957.347               
   217 r.221                -936.376      -963.105               
   218 r.222                 63.6241      -957.748               
   219 r.223                -957.347      -963.105               
   220 r.224                 42.6527      -957.748               
   221 r.225                    1000             2               
   222 r.226                   -1000         -1001               
   223 r.227                 1930.23       15.2619               
   224 r.228                       2             2               
   225 r.229                      -2         -1001               
   226 r.230                 938.052        20.494               
   227 r.231                    1001             2               
   228 r.232                   -1001         -1001               
   229 r.233                  2968.7        26.729               
   230 r.234                    1001             2               
   231 r.235                   -1001         -1001               
   232 r.236                  1963.1       34.9073               
   233 r.237                    1001             2               
   234 r.238                   -1001         -1001               
   235 r.239                 2928.75       13.7767               
   236 r.240                    1001             2               
   237 r.241                   -1001         -1001               
   238 r.242                 1936.38       17.9922               
   239 r.243                    1001             2               
   240 r.244                   -1001         -1001               
   241 r.245                  3005.6      -963.105               
   242 r.246                    1001             2               
   243 r.247                   -1001         -1001               
   244 r.248                    2000      -957.748               
   245 r.249                    1001             2               
   246 r.250                   -1001         -1001               
   247 r.251                 923.877       14.5056               
   248 r.252                    1001             2               
   249 r.253                   -1001         -1001               
   250 r.254                 1957.35       19.2956               
   251 r.255                    1001             2               
   252 r.256                   -1001         -1001               
   253 r.257                 994.401       37.0539               
   254 r.258                    1001             2               
   255 r.259                   -1001         -1001               
   256 r.260                    2000       42.6527               

   No. Column name       Activity     Lower bound   Upper bound
------ ------------    ------------- ------------- -------------
     1 tt                    91.1368             0               
     2 s_1_1        *              0             0             1 
     3 t_1_1                 1076.12             0               
     4 s_1_7        *              0             0             1 
     5 s_2_1        *              1             0             1 
     6 t_2_1                 42.6527             0               
     7 s_2_7        *              1             0             1 
     8 s_1_2        *              0             0             1 
     9 t_1_2                 1075.37             0               
    10 s_1_8        *              1             0             1 
    11 s_2_2        *              1             0             1 
    12 t_2_2                 61.9484             0               
    13 s_2_8        *              0             0             1 
    14 s_1_3        *              1             0             1 
    15 t_1_3                 36.8951             0               
    16 s_2_3        *              0             0             1 
    17 t_2_3                 36.8951             0               
    18 s_1_4        *              1             0             1 
    19 t_1_4                 76.8517             0               
    20 s_2_4        *              0             0             1 
    21 t_2_4                 63.6241             0               
    22 s_1_5        *              1             0             1 
    23 t_1_5                 63.6241             0               
    24 s_2_5        *              0             0             1 
    25 t_2_5                 42.6527             0               
    26 s_1_6        *              1             0             1 
    27 t_1_6                 90.6283             0               
    28 s_2_6        *              0             0             1 
    29 t_2_6                 90.6283             0               
    30 t_1_7                  1005.6             0               
    31 t_2_7                       0             0               
    32 t_1_8                       0             0               
    33 t_2_8                       0             0               
    34 r_1_1_2      *              1             0             1 
    35 u_1_1_2      *              0             0             1 
    36 r_2_1_2      *              0             0             1 
    37 u_2_1_2      *              0             0             1 
    38 r_1_1_3      *              1             0             1 
    39 u_1_1_3      *              0             0             1 
    40 r_2_1_3      *              1             0             1 
    41 u_2_1_3      *              0             0             1 
    42 r_1_1_4      *              1             0             1 
    43 u_1_1_4      *              0             0             1 
    44 r_2_1_4      *              1             0             1 
    45 u_2_1_4      *              0             0             1 
    46 r_1_1_5      *              1             0             1 
    47 u_1_1_5      *              0             0             1 
    48 r_2_1_5      *              1             0             1 
    49 u_2_1_5      *              0             0             1 
    50 r_1_1_8      *              1             0             1 
    51 u_1_1_8      *              0             0             1 
    52 r_2_1_8      *              1             0             1 
    53 u_2_1_8      *              0             0             1 
    54 r_1_2_3      *              1             0             1 
    55 u_1_2_3      *              0             0             1 
    56 r_2_2_3      *              1             0             1 
    57 u_2_2_3      *              0             0             1 
    58 r_1_2_4      *              1             0             1 
    59 u_1_2_4      *              0             0             1 
    60 r_2_2_4      *              1             0             1 
    61 u_2_2_4      *              0             0             1 
    62 r_1_2_5      *              1             0             1 
    63 u_1_2_5      *              0             0             1 
    64 r_2_2_5      *              1             0             1 
    65 u_2_2_5      *              0             0             1 
    66 r_1_2_7      *              1             0             1 
    67 u_1_2_7      *              0             0             1 
    68 r_2_2_7      *              0             0             1 
    69 u_2_2_7      *              1             0             1 
    70 r_1_3_5      *              0             0             1 
    71 u_1_3_5      *              0             0             1 
    72 r_2_3_5      *              1             0             1 
    73 u_2_3_5      *              0             0             1 
    74 r_1_3_7      *              1             0             1 
    75 u_1_3_7      *              0             0             1 
    76 r_2_3_7      *              1             0             1 
    77 u_2_3_7      *              0             0             1 
    78 r_1_4_5      *              0             0             1 
    79 u_1_4_5      *              1             0             1 
    80 r_2_4_5      *              1             0             1 
    81 u_2_4_5      *              0             0             1 
    82 r_1_4_7      *              1             0             1 
    83 u_1_4_7      *              0             0             1 
    84 r_2_4_7      *              1             0             1 
    85 u_2_4_7      *              0             0             1 
    86 r_1_7_8      *              1             0             1 
    87 u_1_7_8      *              0             0             1 
    88 r_2_7_8      *              1             0             1 
    89 u_2_7_8      *              0             0             1 

Integer feasibility conditions:

KKT.PE: max.abs.err = 4.55e-13 on row 49
        max.rel.err = 1.10e-16 on row 158
        High quality

KKT.PB: max.abs.err = 1.88e-13 on row 199
        max.rel.err = 6.79e-15 on row 199
        High quality

End of output
